Name: M000000_A097001-101-xxx_NA_959,45_PRED_VAR5_ALK_Unknown#bth-pae-001
Num Peaks: 50
70:10 76:35 77:1000 78:110 79:42 
80:4 81:7 86:6 87:5 88:21 
90:42 91:40 97:15 100:31 103:213 
104:27 105:10 107:48 108:6 110:41 
112:14 118:39 120:79 121:8 122:4 
130:33 134:589 135:55 136:25 137:3 
138:2 140:83 141:4 143:104 144:8 
160:4 184:610 185:58 186:24 187:2 
198:7 199:3 214:294 215:33 216:12 
217:1 228:3 229:109 230:12 231:5 

Name: M000880_A098001-101-xxx_NA_986,97_TRUE_VAR5_ALK_Glycine, N,N-dimethyl- (1TMS)
MST N: Glycine, N,N-dimethyl- (1TMS)
RI: 986,97
RI VAR5 ALK: TRUE
MST: A098001-101
MST ISOTOPE: 101
MST ID: A098001-101-xxx_
MST SEL MASS: NA
METB: M000880_NA_correct
METB N: (dimethylamino)acetic acid
METB N: (Dimethylamino)acetic acid
METB N: 1,5-Dihydroxynaphthalene
METB N: Dimethylglycine
METB N: Glycine, N,N-dimethyl-
METB N: N,N-dimethylglycine
METB N: N,N-Dimethylglycine
METB N: N,N-Dimethylglycine hydrochloride
METB CAS: 1118-68-9
METB KEGG: C01026
METB InChI: InChI=1S/C4H9NO2/c1-5(2)3-4(6)7/h3H2,1-2H3,(H,6,7)
METB InChIKey: FFDGPVCHZBVARC-UHFFFAOYSA-N
GMD LINK: http://gmd.mpimp-golm.mpg.de/Analytes/f8adb36f-eeba-4d1d-a589-c6ebff81f8ea.aspx
GMD VERS: 21.Nov.2011 21:54 hummel
Formula: C7H17NO2Si
MW: 175,301
CAS#: NA
Comment: consensus spectrum of 1 spectra per analyte, MPIMP ID and isotopomer, with majority threshold = 60%
DB#: 17
Num Peaks: 64
70:81 71:109 72:255 76:122 77:264 
78:50 79:93 80:87 81:3 82:2 
83:2 84:155 85:25 86:96 87:10 
88:56 89:34 90:3 91:2 92:4 
93:12 95:0 96:0 98:0 99:3 
100:34 101:110 102:182 103:291 104:30 
105:3 107:4 108:0 110:0 113:0 
114:37 115:14 116:129 117:179 118:15 
120:0 126:1 127:3 128:4 129:2 
130:254 131:18 132:148 133:7 134:8 
144:9 145:0 146:31 158:0 160:1000 
161:106 162:31 163:0 174:9 175:657 
176:72 177:18 178:0 552:0

Name: M001213_A098002-101-xxx_NA_988_TRUE_VAR5_ALK_Propane-1,2-diol (2TMS)
Synon: MST N: Propane-1,2-diol (2TMS)
Synon: RI: 988
Synon: RI VAR5 ALK: TRUE
Synon: MST: A098002-101
Synon: MST ISOTOPE: 101
Synon: MST ID: A098002-101-xxx_
Synon: MST SEL MASS: NA
Synon: METB: M001213_DL-_correct
Synon: METB N: 1,2-Dihydroxypropan
Synon: METB N: 1,2-Propanediol
Synon: METB N: propane-1,2-diol
Synon: METB N: Propane-1,2-diol
Synon: METB N: Propane-1.2-diol
Synon: METB N: Propylene glycol
Synon: METB N: Sirlene
Synon: METB KEGG: C00583
Synon: METB InChI: InChI=1S/C3H8O2/c1-3(5)2-4/h3-5H,2H2,1H3
Synon: METB InChIKey: DNIAPMSPPWPWGF-UHFFFAOYSA-N
Synon: GMD LINK: http://gmd.mpimp-golm.mpg.de/Analytes/47a8343a-d0f4-46ec-b275-ab24c12097f2.aspx
Synon: GMD VERS: 21.Nov.2011 21:54 hummel
Synon: Formula: C9H24O2Si2
Synon: MW: 220,457
CAS#: 17887-27-3
Comment: consensus spectrum of 3 spectra per analyte, MPIMP ID and isotopomer, with majority threshold = 60%
DB#: 18
Num Peaks: 173
70:6 71:11 72:27 76:11 77:11 
78:1 79:5 80:1 81:95 82:7 
83:1 84:1 85:10 86:2 87:15 
88:7 89:11 90:2 91:1 92:0 
93:0 94:2 95:12 96:1 97:1 
98:1 99:5 100:1 101:31 102:8 
103:26 104:4 105:10 106:3 107:1 
108:0 109:0 110:0 111:0 112:0 
113:3 114:1 115:31 116:21 117:1000 
118:121 119:50 120:6 121:9 122:1 
123:0 124:0 125:0 126:0 127:0 
128:0 129:3 130:3 131:48 132:7 
133:69 134:9 135:5 136:1 137:0 
138:0 139:0 140:0 141:0 142:0 
143:0 144:0 145:1 146:0 150:6 
151:2 152:0 153:0 154:0 155:0 
157:0 158:0 159:0 160:0 161:1 
162:0 163:0 164:0 165:0 167:0 
169:0 170:0 171:0 172:0 173:0 
174:0 176:1 177:0 178:0 179:0 
180:0 181:0 182:0 183:0 184:0 
185:0 186:0 187:0 188:0 189:2 
190:0 191:0 192:0 194:0 195:0 
196:0 197:0 199:0 203:0 204:0 
205:28 206:5 207:3 208:0 209:0 
210:0 217:0 218:0 219:1 220:0 
221:0 222:0 232:0 236:0 237:0 
245:0 247:0 248:0 270:0 289:0 
323:0 333:0 339:0 356:0 376:0 
379:0 415:0 421:0 423:0 442:0 
444:0 457:0 464:0 466:0 474:0 
476:0 479:0 482:0 486:0 491:0 
498:0 507:0 518:0 529:0 539:0 
551:0 557:0 562:0 564:0 565:0 
573:0 577:0 587:0 
