NAME: Perylene
SCANNUMBER: -1
RETENTIONTIME: -1
RETENTIONINDEX: 2886.9
PRECURSORMZ: 252.09323
PRECURSORTYPE: [M]+
IONMODE: Positive
SPECTRUMTYPE: Centroid
FORMULA: C20H12
INCHIKEY: CSHWQDPOILHKBI-UHFFFAOYSA-N
INCHI: 
SMILES: C1=CC2=C3C(=C1)C1=CC=CC4=C1C(=CC=C4)C3=CC=C2
AUTHORS: Price et al., RECETOX, Masaryk University (CZ)
COLLISIONENERGY: 70eV
INSTRUMENT: Q Exactive GC Orbitrap GC-MS/MS
INSTRUMENTTYPE: GC-EI-Orbitrap
IONIZATION: EI+
LICENSE: CC BY-NC
COMMENT: 
Num Peaks: 19
112.03071	49892
113.03854	87510	"Theoretical m/z 113.039125, Mass diff 0 (0 ppm), Formula C9H5"
124.03076	100146
124.53242	24923
125.03855	179254	"Theoretical m/z 125.039125, Mass diff 0 (0 ppm), Formula C10H5"
125.54019	49039
126.04636	131679
126.54804	36313
222.04645	28905
224.06192	55632
226.04175	37413
246.04646	23286
248.06204	140007
249.07072	62236	"Theoretical m/z 249.070425, Mass diff -0.001 (0 ppm), Formula C20H9"
250.07765	641789
251.07967	137600
252.09323	1955166	"Theoretical m/z 252.093354, Mass diff 0 (0.49 ppm), SMILES C1=CC=2C=CC=C3C4=CC=CC5=CC=CC(C(=C1)C23)=C54, Annotation [C20H12]+, Rule of HR False"
253.09656	402252
254.09985	39987
