INCHIKEY: XTWYTFMLZFPYCI-UHFFFAOYSA-N
INCHI: InChI=1S/C10H15N5O10P2/c11-8-5-9(13-2-12-8)15(3-14-5)10-7(17)6(16)4(24-10)1-23-27(21,22)25-26(18,19)20/h2-4,6-7,10,16-17H,1H2,(H,21,22)(H2,11,12,13)(H2,18,19,20)
SMILES: C1=NC2=C(C(=N1)N)N=CN2C3C(C(C(O3)COP(=O)(O)OP(=O)(O)O)O)O
INSTRUMENT: TQD, Waters
INSTRUMENTTYPE: LC-ESI-QQ
MSLEVEL: MS2
COLLISIONENERGY: 40
FORMULA: C10H15N5O10P2
NAME: ADP
PRECURSORMZ: 428.31
IONMODE: positive
NUM PEAKS: 2
135.0       83.0
136.0       999.0

INCHIKEY: BEJNERDRQOWKJM-UHFFFAOYSA-N
INCHI: InChI=1S/C6H6O4/c7-2-4-1-5(8)6(9)3-10-4/h1,3,7,9H,2H2
SMILES: C1=C(OC=C(C1=O)O)CO
INSTRUMENT: LTQ Orbitrap XL Thermo Scientific
INSTRUMENTTYPE: LC-ESI-ITFT
MSLEVEL: MS2
COLLISIONENERGY: 60 % (nominal)
FORMULA: C6H6O4
NAME: Kojic acid
PRECURSORTYPE: [M-H]-
PRECURSORMZ: 141.0193
IONMODE: negative
NUM PEAKS: 1
141.0194    999.0

INCHIKEY: UVKZSORBKUEBAZ-UHFFFAOYSA-N
INCHI: InChI=1S/C18H22N2/c1-19-12-14-20(15-13-19)18(16-8-4-2-5-9-16)17-10-6-3-7-11-17/h2-11,18H,12-15H2,1H3
SMILES: CN1CCN(CC1)C(C2=CC=CC=C2)C3=CC=CC=C3
INSTRUMENT: LTQ Orbitrap XL Thermo Scientific
INSTRUMENTTYPE: LC-ESI-ITFT
COLLISIONENERGY: 85% (nominal)
MSLEVEL: MS2
FORMULA: C18H22N2
NAME: Cyclizine
PRECURSORTYPE: [M+H]+
PRECURSORMZ: 267.1856
IONMODE: positive
NUM PEAKS: 3
99.0917     6.0
165.0698    2.0
167.0856    999.0

INCHIKEY: TTWJBBZEZQICBI-UHFFFAOYSA-N
INCHI: InChI=1S/C14H22ClN3O2/c1-4-18(5-2)7-6-17-14(19)10-8-11(15)12(16)9-13(10)20-3/h8-9H,4-7,16H2,1-3H3,(H,17,19)
SMILES: CCN(CC)CCNC(=O)C1=CC(=C(C=C1OC)N)Cl
INSTRUMENT: LTQ Orbitrap XL Thermo Scientific
MSLEVEL: MS2
INSTRUMENTTYPE: LC-ESI-ITFT
COLLISIONENERGY: 20% (nominal)
FORMULA: C14H22ClN3O2
NAME: Metoclopramide
PRECURSORTYPE: [M+H]+
PRECURSORMZ: 300.1473
IONMODE: positive
NUM PEAKS: 3
184.0162    11.0
227.0582    290.0
300.1473    999.0

INCHIKEY: SIIRBDOFKDACOK-UHFFFAOYSA-N
INCHI: InChI=1S/C22H30N4O4/c1-14(2)11-17-22(30)26(5)18(12-16-9-7-6-8-10-16)21(29)23-13-19(27)25(4)15(3)20(28)24-17/h6-10,12,14-15,17H,11,13H2,1-5H3,(H,23,29)(H,24,28)
SMILES: CC1C(=O)NC(C(=O)N(C(=CC2=CC=CC=C2)C(=O)NCC(=O)N1C)C)CC(C)C
INSTRUMENT: LTQ Orbitrap XL Thermo Scientific
INSTRUMENTTYPE: LC-ESI-ITFT
COLLISIONENERGY: 30 % (nominal)
FORMULA: C22H30N4O4
MSLEVEL: MS2
NAME: Tentotoxin
PRECURSORTYPE: [M+H]+
PRECURSORMZ: 415.234
IONMODE: positive
NUM PEAKS: 32
58.065      198.0
86.0962     22.0
114.0909    10.0
115.0867    30.0
132.0806    33.0
143.0815    19.0
146.0966    12.0
169.134     17.0
171.1491    999.0
173.1077    11.0
181.1338    32.0
188.0706    42.0
189.1023    362.0
199.1442    191.0
210.1598    16.0
217.0971    345.0
238.1551    201.0
256.1804    37.0
257.1652    8.0
273.1592    27.0
274.1575    13.0
284.1766    13.0
286.1904    7.0
301.1547    67.0
302.15      389.0
312.1704    703.0
327.1697    48.0
330.1812    380.0
358.2127    453.0
384.1917    17.0
397.2236    17.0
415.2338    231.0
