BEGIN IONS
SCANNUMBER=1516
PRECURSORTYPE=[M+H]+
IONMODE=Positive
SPECTRUMTYPE=Centroid
FORMULA=C8H16NO5P
INCHIKEY=VEENJGZXVHKXNB-UHFFFAOYSA-N
INCHI=
SMILES=COP(=O)(OC(=CC(=O)N(C)C)C)OC
AUTHORS=Biomarker Analytical Laboratories, RECETOX, Masaryk University (CZ)
INSTRUMENT=LC Orbitrap Fusion Tribrid MS
INSTRUMENTTYPE=LC-ESI-Orbitrap
IONIZATION=ESI+
LICENSE=CC BY-NC
COMMENT=
PEAK_COMMENTS={112.07591: 'Theoretical m/z 112.075687, Mass diff 0 (1.99 ppm), SMILES O=C(C=CC)N(C)C, Annotation [C6H11NO-H]+, Rule of HR True', 127.01563: 'Theoretical m/z 127.01547, Mass diff 0 (1.26 ppm), SMILES O=P(O)(OC)OC, Annotation [C2H7O4P+H]+, Rule of HR True', 193.02605: 'Theoretical m/z 193.026035, Mass diff 0 (0.08 ppm), SMILES O=CC=C(OP(=O)(OC)OC)C, Annotation [C6H11O5P-H]+, Rule of HR True', 238.08437: 'Theoretical m/z 238.083891, Mass diff 0 (2.01 ppm), SMILES O=C(C=C(OP(=O)(OC)OC)C)N(C)C, Annotation [C8H16NO5P+H]+, Rule of HR True'}
NUM_PEAKS=5
COMPOUND_NAME=Dicrotophos
RETENTION_TIME=2.025499
PRECURSOR_MZ=238.0844
COLLISION_ENERGY=
112.074 102027.0 
112.07591 9070987.0 
127.01563 3230337.0 
193.02605 7897744.0 
238.08437 2973124.0 
END IONS