BEGIN IONS
PEPMASS=898.727
CHARGE=0
MSLEVEL=2
SOURCE_INSTRUMENT=DI-ESI-Orbitrap
FILENAME=f.pphapale/EMBL_MCF/1,2-Dierucoyl-sn-glycero-3-phosphocholine2.mzXML;
SEQ=*..*
IONMODE=n/a
ORGANISM=GNPS-EMBL-MCF
NAME=1,2-Dierucoyl-sn-glycero-3-phosphocholine M+H
PI=Alexandrov Theodore
DATACOLLECTOR=Prasad
SMILES= 
INCHI=InChI=1S/C26H52NO7P/c1-5-6-7-8-9-10-11-12-13-14-15-16-17-18-19-20-26(29)32-23-25(28)24-34-35(30,31)33-22-21-27(2,3)4/h12-13,25,28H,5-11,14-24H2,1-4H3/b13-12-/t25-/m1/s1
INCHIAUX= 
PUBMED=16081932
SUBMITUSER=pphapale
TAGS=
LIBRARYQUALITY=3
SPECTRUMID=CCMSLIB00000479320
SCANS=1
66.137428	428881.90625
71.073753	3867711.75
74.413353	406184.09375
80.975517	501394.34375
86.09819	69647360.0
91.968964	375753.5
97.102364	381627.0625
98.986351	2695920.25
104.109001	11314820.0
110.867332	376947.34375
125.004265	28576308.0
184.083572	1251055616.0
250.575409	390975.46875
330.388519	384256.625
341.566345	387469.25
415.455444	453481.25
472.335663	501323.625
489.3862	416779.59375
560.446716	1631406.625
630.475891	663449.3125
678.328552	469969.625
725.424438	852037.3125
866.950623	455642.8125
END IONS
BEGIN IONS
PEPMASS=522.356
CHARGE=1+
MSLEVEL=2
SOURCE_INSTRUMENT=DI-ESI-Orbitrap
FILENAME=Oleoyl_sn_glycero_phosphocholine2.mzXML
SEQ=*..*
IONMODE=Positive
ORGANISM=GNPS-EMBL-MCF
NAME=1-Oleoyl-sn-glycero-3-phosphocholine M+H
PI=Alexandrov Theodore
DATACOLLECTOR=Prasad
SMILES=N/A
INCHI="InChI=1S/C26H52NO7P/c1-5-6-7-8-9-10-11-12-13-14-15-16-17-18-19-20-26(29)32-23-25(28)24-34-35(30,31)33-22-21-27(2,3)4/h12-13,25,28H,5-11,14-24H2,1-4H3/b13-12-/t25-/m1/s1"
INCHIAUX=YAMUFBLWGFFICM-PTGWMXDISA-N
PUBMED=16081932
SUBMITUSER=pphapale
TAGS=
LIBRARYQUALITY=1
SPECTRUMID=CCMSLIB00000479565
SCANS=1
56.050465	1213305.625
58.066898	13339284.0
59.07431	1786472.875
60.081871	45427008.0
65.937714	4670012.0
67.055557	1382453.5
67.739624	1331578.5
69.071526	1382107.5
71.074745	7062875.5
81.072548	3507316.5
83.087875	2351463.75
86.09903	196134032.0
92.954948	1272726.125
95.087791	5280955.5
97.104416	3122201.0
98.986626	1570968.0
104.110794	1554161664.0
121.105835	2696536.5
125.005058	40033944.0
128.048172	1342755.875
141.244171	1348200.0
163.021622	4867282.0
181.035233	7821372.5
184.084412	2019690496.0
197.907867	1418892.625
199.048965	7051761.0
213.136703	1555774.625
240.119171	2812621.5
258.134827	40825316.0
339.324036	59300656.0
362.436462	1306675.75
445.316742	20468510.0
504.40741	105828248.0
522.408142	70303520.0
END IONS
BEGIN IONS
PEPMASS=496.34
CHARGE=1-
MSLEVEL=2
SOURCE_INSTRUMENT=DI-ESI-Orbitrap
FILENAME=Palmitoyl_sn_glycero_phosphocholine2.mzXML
SEQ=*..*
IONMODE=positive
ORGANISM=GNPS-EMBL-MCF
NAME=1-Palmitoyl-sn-glycero-3-phosphocholine M+H
PI=Alexandrov Theodore
DATACOLLECTOR=Prasad
SMILES=N/A
INCHI="InChI=CCCCCCCCCCCCCCCC(=O)OC[C@H](COP(=O)([O-])OCC[N+](C)(C)C)O"
INCHIAUX=ASWBNKHCZGQVJV-HSZRJFAPSA-N
PUBMED=460602
SUBMITUSER=pphapale
TAGS=
LIBRARYQUALITY=1
SPECTRUMID=CCMSLIB00000479566
SCANS=1
51.36277	2014644.25
56.965591	7101339.0
58.066555	19658010.0
59.0746	2106540.0
60.081715	65814812.0
60.854828	1877933.0
62.256985	1740470.5
65.978775	3891545.5
69.60791	2146809.5
71.080765	16124084.0
81.072037	3707660.5
85.103256	2068801.625
86.098892	268932224.0
95.088104	2035273.875
98.98748	1854370.375
104.110771	2290994432.0
125.006012	53993288.0
163.023254	11685794.0
181.035599	3609697.0
184.08432	2913305856.0
193.512405	2514100.0
199.050293	4470432.0
240.115219	2100184.25
250.612717	2603946.75
258.13324	59326564.0
283.284912	1992020.75
313.307526	97899016.0
370.64444	2168631.0
377.59964	2923469.5
382.784271	1902304.25
409.699921	2106601.25
419.300598	27471138.0
423.371582	2398145.5
424.023407	2181241.25
478.392975	164633648.0
496.398193	125002984.0
END IONS
BEGIN IONS
PEPMASS=898.33
CHARGE=-1
MSLEVEL=2
SOURCE_INSTRUMENT=DI-ESI-Q-Exactive Plus
FILENAME=Dierucoylsnglycerophosphocholine.mzXML
SEQ=*..*
IONMODE=Positive
ORGANISM=GNPS-EMBL-MCF
NAME="1,2-Dierucoyl-sn-glycero-3-phosphocholine" M+H
PI=Alexandrov Theodore
DATACOLLECTOR=Prasad
SMILES=N/A
INCHI="InChI=1S/C52H100NO8P/c1-6-8-10-12-14-16-18-20-22-24-26-28-30-32-34-36-38-40-42-44-51(54)58-48-50(49-60-62(56,57)59-47-46-53(3,4)5)61-52(55)45-43-41-39-37-35-33-31-29-27-25-23-21-19-17-15-13-11-9-7-2/h20-23,50H,6-19,24-49H2,1-5H3/b22-20-,23-21-/t50-/m1/s1"
INCHIAUX=SDEURMLKLAEUAY-JFSPZUDSSA-N
PUBMED=24779126
SUBMITUSER=pphapale
TAGS=
LIBRARYQUALITY=1
SPECTRUMID=CCMSLIB00000479567
SCANS=1
66.137428	428881.90625
71.073753	3867711.75
74.413353	406184.09375
80.975517	501394.34375
86.09819	69647360.0
91.968964	375753.5
97.102364	381627.0625
98.986351	2695920.25
104.109001	11314820.0
110.867332	376947.34375
125.004265	28576308.0
184.083572	1251055616.0
250.575409	390975.46875
330.388519	384256.625
341.566345	387469.25
415.455444	453481.25
472.335663	501323.625
489.3862	416779.59375
560.446716	1631406.625
630.475891	663449.3125
678.328552	469969.625
725.424438	852037.3125
866.950623	455642.8125
END IONS
BEGIN IONS
PEPMASS=638.572
CHARGE=1+
MSLEVEL=2
SOURCE_INSTRUMENT=DI-ESI-Orbitrap
FILENAME=DioleoylracglycerolNH4_2.mzXML
SEQ=*..*
IONMODE=Positive
ORGANISM=GNPS-EMBL-MCF
NAME="1,2-Dioleoyl-rac-glycerol" M+NH4
PI=Alexandrov Theodore
DATACOLLECTOR=Prasad
SMILES=N/A
INCHI="InChI=1S/C39H72O5/c1-3-5-7-9-11-13-15-17-19-21-23-25-27-29-31-33-38(41)43-36-37(35-40)44-39(42)34-32-30-28-26-24-22-20-18-16-14-12-10-8-6-4-2/h17-20,37,40H,3-16,21-36H2,1-2H3/b19-17-,20-18-/t37-/m0/s1"
INCHIAUX=AFSHUZFNMVJNKX-LLWMBOQKSA-N
PUBMED=9543716
SUBMITUSER=pphapale
TAGS=
LIBRARYQUALITY=1
SPECTRUMID=CCMSLIB00000479568
SCANS=1
50.945892	2844001.0
55.059273	67081604.0
57.059525	149672320.0
63.637402	2866352.0
67.055725	148838672.0
69.071114	230096304.0
71.079208	73315712.0
79.055817	28389958.0
81.072189	262218496.0
83.087914	281579104.0
85.092667	62029432.0
91.227722	2707158.0
93.072632	58596672.0
95.089478	322971296.0
96.029053	5372351.0
97.099899	291956192.0
99.084808	15964003.0
101.062492	2996671.5
107.089516	74576712.0
109.104607	198341616.0
110.093399	2624686.5
111.111977	164105696.0
113.099854	6020476.5
115.078468	3257781.25
121.106178	238404912.0
123.122314	76046808.0
125.117599	54939928.0
127.115433	11647947.0
135.122864	225475008.0
137.137894	28242366.0
139.117599	31392528.0
149.140305	110327856.0
151.155045	41570512.0
153.133698	30875582.0
158.824615	3167000.5
163.15744	51461444.0
165.171539	29585152.0
167.151276	17858180.0
177.173584	24024350.0
179.187012	4034035.75
181.167252	6927290.0
191.188797	14903496.0
205.205658	6142258.0
209.203598	6064671.0
247.255539	117531448.0
255.219162	2735787.0
260.176361	2805851.75
265.276306	220604608.0
339.323303	2278431744.0
340.324585	23924674.0
447.389801	3065698.75
603.61969	305274624.0
604.578552	5050710.5
632.542236	3383829.5
END IONS
BEGIN IONS
PEPMASS=153.019
CHARGE=1
MSLEVEL=2
SOURCE_INSTRUMENT=DI-ESI-Orbitrap
FILENAME=Dihydroxybenzoic_acid_neg2.mzXML
SEQ=*..*
IONMODE=Negative
ORGANISM=GNPS-EMBL-MCF
NAME="2,5-Dihydroxybenzoic acid" M-H
PI=Alexandrov Theodore
DATACOLLECTOR=Prasad
SMILES=N/A
INCHI="InChI=1S/C7H6O4/c8-4-1-2-6(9)5(3-4)7(10)11/h1-3,8-9H,(H,10,11)"
INCHIAUX=WXTMDXOMEHJXQO-UHFFFAOYSA-N
PUBMED=3469
SUBMITUSER=pphapale
TAGS=
LIBRARYQUALITY=1
SPECTRUMID=CCMSLIB00000479569
SCANS=1
57.745575	2997.222168
66.162102	3343.909668
69.016235	30642.314453
71.05275	19795.748047
72.331573	9998.125
79.01915	7102.51123
81.027649	45549.53125
81.603699	3546.741943
85.029915	114824.90625
95.006508	140172.21875
96.186348	3408.001465
97.030617	3058.425293
99.010056	6869.054688
104.37291	3438.462891
105.440338	3170.231445
108.024094	474899.84375
109.032532	2965866.0
110.03569	95776.25
113.026794	6849.272461
120.501625	6527.620605
122.041016	7757.842773
123.013351	113434.804688
137.024582	7016.287598
152.031998	88642.71875
153.027039	1870490.375
154.029434	72867.859375
END IONS
BEGIN IONS
PEPMASS=138.055
CHARGE=1
MSLEVEL=2
SOURCE_INSTRUMENT=DI-ESI-Orbitrap
FILENAME=Aminobenzoic_acid2.mzXML
SEQ=*..*
IONMODE=Positive
ORGANISM=GNPS-EMBL-MCF
NAME=4-Aminobenzoic acid M+H
PI=Alexandrov Theodore
DATACOLLECTOR=Prasad
SMILES=N/A
INCHI="InChI=1S/C7H7NO2/c8-6-3-1-5(2-4-6)7(9)10/h1-4H,8H2,(H,9,10)"
INCHIAUX=ALYNCZNDIQEVRV-UHFFFAOYSA-N
PUBMED=7057990
SUBMITUSER=pphapale
TAGS=
LIBRARYQUALITY=1
SPECTRUMID=CCMSLIB00000479570
SCANS=1
50.016323	68476.070312
51.024139	55785.453125
53.039322	752443.6875
53.703335	33525.296875
60.52816	28843.992188
65.041016	697745.1875
67.056046	314985.3125
71.260994	239734.9375
75.02533	47529.8125
76.032616	27754.806641
77.040817	861075.0
79.056847	31853.894531
81.035889	54610.789062
92.052719	184124.859375
93.060478	2033454.75
94.06855	19333656.0
95.052765	4399703.0
96.047089	42647.984375
105.049187	1297030.0
110.063156	120648.554688
120.049873	3671001.75
121.034462	312304.71875
132.7099	29649.253906
138.061478	135688320.0
139.06308	1622096.5
149.041687	564485.9375
156.072052	172943.5
END IONS
BEGIN IONS
PEPMASS=385.347
CHARGE=1
MSLEVEL=2
SOURCE_INSTRUMENT=DI-ESI-Orbitrap
FILENAME=Cholestenone2.mzXML
SEQ=*..*
IONMODE=Positive
ORGANISM=GNPS-EMBL-MCF
NAME=4-Cholesten-3-one M+H
PI=Alexandrov Theodore
DATACOLLECTOR=Prasad
SMILES=N/A
INCHI="InChI=1S/C27H44O/c1-18(2)7-6-8-19(3)23-11-12-24-22-10-9-20-17-21(28)13-15-26(20,4)25(22)14-16-27(23,24)5/h17-19,22-25H,6-16H2,1-5H3/t19-,22+,23-,24+,25+,26+,27-/m1/s1"
INCHIAUX=NYOXRYYXRWJDKP-GYKMGIIDSA-N
PUBMED=91477
SUBMITUSER=pphapale
TAGS=
LIBRARYQUALITY=1
SPECTRUMID=CCMSLIB00000479571
SCANS=1
53.312294	1074957.375
55.055489	1856051.375
57.070545	11004014.0
67.055931	4443358.0
69.071159	10135773.0
71.086914	12771678.0
79.056686	2648466.5
81.072067	29456328.0
83.062744	59386244.0
85.102898	4612928.5
91.056709	1158146.625
93.073021	5465900.5
95.088928	39435492.0
97.069519	496477664.0
102.696892	1172330.0
105.073349	5105083.0
107.042076	13328427.0
109.0709	510063360.0
111.120369	14257538.0
119.090279	7493996.0
121.09819	14445735.0
123.094826	68101408.0
125.136765	7219818.5
131.089859	4534353.5
133.106857	11233749.0
135.121628	10042070.0
137.125427	15306982.0
145.107224	9567521.0
147.12352	11445974.0
149.138779	18910480.0
151.142899	8332197.5
156.932724	3634862.25
159.124283	13272444.0
161.139755	12480081.0
163.137482	25533666.0
165.171844	5071313.0
170.979553	2664890.0
173.141571	10521535.0
175.15683	7246767.0
177.141968	18020994.0
179.188797	9010143.0
185.141342	5516387.5
187.159119	8660372.0
189.172379	5419574.0
191.159576	11738866.0
193.205811	8352818.0
199.160629	8585796.0
201.176117	11776112.0
203.166351	10283285.0
205.194641	9683710.0
207.222992	3222491.0
210.990967	1188695.25
213.177536	11170467.0
215.193619	8547426.0
217.17717	9122228.0
219.202393	8671463.0
227.19455	10896007.0
229.209732	2164313.5
231.196533	9950591.0
233.242981	2961275.0
235.257553	1193484.75
241.212875	16124764.0
243.227402	1334230.75
245.208069	2152686.25
255.233688	24344224.0
259.237762	6493542.0
261.27887	2867206.0
269.243347	1406392.625
271.262421	2542506.75
273.251007	6973478.0
275.296112	2607365.0
283.26236	2376141.5
285.281586	2898215.75
289.310699	3151045.25
297.283813	2877718.25
299.298035	1605709.5
301.312775	1860541.375
303.328064	1848612.125
311.296814	1792056.875
315.327484	4647080.0
327.33371	3916008.0
367.370056	81755248.0
385.387756	255675520.0
END IONS
BEGIN IONS
PEPMASS=810.134
CHARGE=1
MSLEVEL=2
SOURCE_INSTRUMENT=DI-ESI-Orbitrap
FILENAME=AcetylCoA2.mzXML
SEQ=*..*
IONMODE=Positive
ORGANISM=GNPS-EMBL-MCF
NAME=Acetyl coenzyme A M+H
PI=Alexandrov Theodore
DATACOLLECTOR=Prasad
SMILES=N/A
INCHI="InChI=1S/C23H38N7O17P3S/c1-12(31)51-7-6-25-14(32)4-5-26-21(35)18(34)23(2,3)9-44-50(41,42)47-49(39,40)43-8-13-17(46-48(36,37)38)16(33)22(45-13)30-11-29-15-19(24)27-10-28-20(15)30/h10-11,13,16-18,22,33-34H,4-9H2,1-3H3,(H,25,32)(H,26,35)(H,39,40)(H,41,42)(H2,24,27,28)(H2,36,37,38)/t13-,16-,17-,18+,22-/m1/s1"
INCHIAUX=ZSLZBFCDCINBPY-ZSJPKINUSA-N
PUBMED=444493
SUBMITUSER=pphapale
TAGS=
LIBRARYQUALITY=1
SPECTRUMID=CCMSLIB00000479572
SCANS=1
56.699314	2543.476074
59.669636	2595.475586
61.012016	2604.205322
72.045563	8423.014648
85.067047	5009.116211
86.09819	2117.233643
88.023438	37566.316406
97.03109	14452.125977
99.058075	128788.3125
103.024994	58216.050781
104.585571	2049.291504
114.040779	26580.705078
120.051292	10576.795898
124.080612	14647.025391
130.083542	17490.917969
132.053238	25767.755859
136.067657	708005.5
141.058105	14606.863281
142.092651	64855.636719
159.06665	448516.46875
166.093719	12795.192383
174.066849	58247.546875
175.063568	71415.007812
177.003876	3053.031006
183.119843	2285.125244
184.107941	150729.609375
191.095322	5521.765137
197.801895	2293.621582
201.082718	564433.0
205.074677	8376.095703
217.078522	5697.430176
236.664261	2327.081787
243.136307	35701.628906
255.524017	2193.381348
257.152313	4515.775879
260.139984	3410.620117
261.149811	62447.960938
271.130768	4368.574219
273.145355	8134.462891
285.14856	15628.324219
293.941803	2333.716309
303.165771	3423450.5
308.665802	2067.712646
312.073608	10327.137695
330.091919	58569.890625
341.122498	11417.602539
357.176483	3029.675049
383.138733	10614.200195
401.155548	27749.167969
410.070404	40382.171875
428.085236	514052.03125
435.672668	2389.512207
508.055969	24185.453125
575.761719	2574.585693
592.094177	2550.734131
665.603027	2621.323242
725.55304	3515.374756
726.852844	2427.372559
774.44574	2380.218506
810.241272	29246.314453
END IONS
BEGIN IONS
PEPMASS=136.062
CHARGE=1
MSLEVEL=2
SOURCE_INSTRUMENT=DI-ESI-Orbitrap
FILENAME=Adenine_MS2.mzXML
SEQ=*..*
IONMODE=Positive
ORGANISM=GNPS-EMBL-MCF
NAME=Adenine M+H
PI=Alexandrov Theodore
DATACOLLECTOR=Prasad
SMILES=N/A
INCHI="InChI=1S/C5H5N5/c6-4-3-5(9-1-7-3)10-2-8-4/h1-2H,(H3,6,7,8,9,10)"
INCHIAUX=GFFGJBXGBJISGV-UHFFFAOYSA-N
PUBMED=190
SUBMITUSER=pphapale
TAGS=
LIBRARYQUALITY=1
SPECTRUMID=CCMSLIB00000479573
SCANS=1
65.869789	1141476.625
83.021255	1235087.375
91.772469	979065.5625
94.043243	3044282.75
109.054817	1286043.0
119.040543	14678569.0
120.041893	3967049.75
136.068161	974787008.0
137.07045	253094176.0
138.055847	2822116.25
END IONS
BEGIN IONS
PEPMASS=134.047
CHARGE=1
MSLEVEL=2
SOURCE_INSTRUMENT=DI-ESI-Orbitrap
FILENAME=Adenine_neg2.mzXML
SEQ=*..*
IONMODE=Negative
ORGANISM=GNPS-EMBL-MCF
NAME=Adenine M-H
PI=Alexandrov Theodore
DATACOLLECTOR=Prasad
SMILES=N/A
INCHI="InChI=1S/C5H5N5/c6-4-3-5(9-1-7-3)10-2-8-4/h1-2H,(H3,6,7,8,9,10)"
INCHIAUX=GFFGJBXGBJISGV-UHFFFAOYSA-N
PUBMED=190
SUBMITUSER=pphapale
TAGS=
LIBRARYQUALITY=1
SPECTRUMID=CCMSLIB00000479574
SCANS=1
54.027794	190496.703125
63.21627	176791.65625
65.013428	1212220.375
68.025078	523098.375
72.624901	270771.75
80.025764	359489.9375
92.026482	14851593.0
107.039131	78022728.0
108.040512	1829776.5
111.528099	219110.59375
134.051971	447820352.0
135.056213	12226337.0
END IONS
BEGIN IONS
PEPMASS=348.071
CHARGE=1
MSLEVEL=2
SOURCE_INSTRUMENT=DI-ESI-Orbitrap
FILENAME=Adenosine_monophosphate2.mzXML
SEQ=*..*
IONMODE=Positive
ORGANISM=GNPS-EMBL-MCF
NAME=Adenosine 5_-monophosphate M+H
PI=Alexandrov Theodore
DATACOLLECTOR=Prasad
SMILES=N/A
INCHI="InChI=1S/C10H14N5O7P/c11-8-5-9(13-2-12-8)15(3-14-5)10-7(17)6(16)4(22-10)1-21-23(18,19)20/h2-4,6-7,10,16-17H,1H2,(H2,11,12,13)(H2,18,19,20)/t4-,6-,7-,10-/m1/s1"
INCHIAUX=UDMBCSSLTHHNCD-KQYNXXCUSA-N
PUBMED=6083
SUBMITUSER=pphapale
TAGS=
LIBRARYQUALITY=1
SPECTRUMID=CCMSLIB00000479575
SCANS=1
53.16864	183522.75
54.022614	77341.0
55.029789	327396.3125
56.351715	94952.304688
67.030807	185159.515625
72.564934	167656.46875
78.628639	108692.148438
97.031715	17950362.0
119.039558	148895.328125
136.067947	363874208.0
137.071198	1917089.5
178.083191	111951.851562
232.09903	147844.703125
250.113251	1312412.25
348.10614	29370612.0
349.103241	537890.4375
END IONS
BEGIN IONS
PEPMASS=428.037
CHARGE=1
MSLEVEL=2
SOURCE_INSTRUMENT=DI-ESI-Orbitrap
FILENAME=Adenosine_diphosphate.mzXML
SEQ=*..*
IONMODE=Positive
ORGANISM=GNPS-EMBL-MCF
NAME=Adenosine 5_-diphosphate M+H
PI=Alexandrov Theodore
DATACOLLECTOR=Prasad
SMILES=N/A
INCHI="InChI=1S/C10H15N5O10P2/c11-8-5-9(13-2-12-8)15(3-14-5)10-7(17)6(16)4(24-10)1-23-27(21,22)25-26(18,19)20/h2-4,6-7,10,16-17H,1H2,(H,21,22)(H2,11,12,13)(H2,18,19,20)/t4-,6-,7-,10-/m1/s1"
INCHIAUX=XTWYTFMLZFPYCI-KQYNXXCUSA-N
PUBMED=6022
SUBMITUSER=pphapale
TAGS=
LIBRARYQUALITY=1
SPECTRUMID=CCMSLIB00000479576
SCANS=1
53.014656	7974.241699
55.030468	20735.828125
57.07093	11555.847656
67.030762	17080.486328
71.108841	53804.425781
74.240028	7378.633789
74.975319	11020.600586
97.031715	1210244.625
105.282509	8619.276367
117.537148	9960.108398
119.039421	38282.386719
121.104729	11386.817383
135.059341	9347.266602
136.067856	43313096.0
137.069412	59694.179688
139.117798	33892.960938
176.06456	11745.665039
178.082748	168555.5625
178.959366	11135.495117
185.127487	44391.125
203.139771	161494.390625
204.096573	26130.632812
214.086105	74223.507812
216.043716	61770.90625
232.1035	422652.28125
250.114273	231343.6875
268.123352	38153.898438
312.079376	59822.953125
328.2388	9034.679688
330.097229	313545.125
348.107483	4266114.5
349.097778	9137.298828
365.352722	8237.135742
399.667542	8412.500977
428.087128	2474639.75
END IONS
BEGIN IONS
PEPMASS=268.105
CHARGE=1
MSLEVEL=2
SOURCE_INSTRUMENT=DI-ESI-Orbitrap
FILENAME=Adenosine2.mzXML
SEQ=*..*
IONMODE=Positive
ORGANISM=GNPS-EMBL-MCF
NAME=Adenosine M+H
PI=Alexandrov Theodore
DATACOLLECTOR=Prasad
SMILES=N/A
INCHI="InChI=1S/C10H13N5O4/c11-8-5-9(13-2-12-8)15(3-14-5)10-7(18)6(17)4(1-16)19-10/h2-4,6-7,10,16-18H,1H2,(H2,11,12,13)/t4-,6-,7-,10-/m1/s1"
INCHIAUX=OIRDTQYFTABQOQ-KQYNXXCUSA-N
PUBMED=60961
SUBMITUSER=pphapale
TAGS=
LIBRARYQUALITY=1
SPECTRUMID=CCMSLIB00000479577
SCANS=1
51.011391	12575.009766
52.01926	12244.470703
53.017235	157375.59375
54.022449	96299.914062
55.020733	2317442.0
57.034298	3178846.75
59.050282	253846.171875
61.029453	538790.4375
65.014641	119906.546875
66.023109	408811.9375
67.026573	8363.267578
69.034981	2486099.0
71.014297	568842.25
73.030754	2615089.75
74.097778	129135.617188
75.04615	36518.726562
77.025414	37041.964844
82.042183	26264.203125
85.031548	5306120.5
87.046661	705608.25
92.027817	121187.296875
93.03524	53959.460938
94.042786	135012.328125
97.031265	578719.125
108.045868	98197.179688
115.043411	888532.375
119.040314	752642.1875
120.047226	25805.783203
135.058197	80733.054688
136.068146	508259936.0
137.071655	862069.75
178.084503	168991.171875
250.110535	75951.609375
268.127045	17627020.0
269.127563	42165.738281
END IONS
BEGIN IONS
PEPMASS=90.0555
CHARGE=1
MSLEVEL=2
SOURCE_INSTRUMENT=DI-ESI-Orbitrap
FILENAME=Alanine_MS2.mzXML
SEQ=*..*
IONMODE=Positive
ORGANISM=GNPS-EMBL-MCF
NAME=Alanine M+H
PI=Alexandrov Theodore
DATACOLLECTOR=Prasad
SMILES=N/A
INCHI="InChI=1S/C3H7NO2/c1-2(4)3(5)6/h2H,4H2,1H3,(H,5,6)/t2-/m0/s1"
INCHIAUX=QNAYBMKLOCPYGJ-REOHCLBHSA-N
PUBMED=5950
SUBMITUSER=pphapale
TAGS=
LIBRARYQUALITY=1
SPECTRUMID=CCMSLIB00000479578
SCANS=1
55.055328	1669.299316
56.014194	2542.530273
57.058414	2042.29834
70.066986	2254.094482
71.160225	5241.987793
72.050529	850956.625
73.049271	227528.765625
89.075317	101509.6875
90.075943	160398.0
104.713135	1510.326904
END IONS
BEGIN IONS
PEPMASS=311.313
CHARGE=1
MSLEVEL=2
SOURCE_INSTRUMENT=DI-ESI-Orbitrap
FILENAME=Arachidic_acid_neg_2.mzXML
SEQ=*..*
IONMODE=Negative
ORGANISM=GNPS-EMBL-MCF
NAME=Arachidic acid M-H
PI=Alexandrov Theodore
DATACOLLECTOR=Prasad
SMILES=N/A
INCHI="InChI=1S/C20H40O2/c1-2-3-4-5-6-7-8-9-10-11-12-13-14-15-16-17-18-19-20(21)22/h2-19H2,1H3,(H,21,22)"
INCHIAUX=VKOBVWXKNCXXDE-UHFFFAOYSA-N
PUBMED=10467
SUBMITUSER=pphapale
TAGS=
LIBRARYQUALITY=1
SPECTRUMID=CCMSLIB00000479579
SCANS=1
50.299179	3439.615234
57.300552	3587.85376
59.769974	3063.953369
70.039909	3177.591309
77.463814	3341.716064
78.139076	3331.392334
90.732834	3709.186523
94.812172	3306.816895
96.737442	7007.583496
108.702026	3708.455811
146.965622	4947.753418
174.965546	55672.625
311.317657	711829.625
312.325165	62529.160156
END IONS
BEGIN IONS
PEPMASS=303.232
CHARGE=1
MSLEVEL=2
SOURCE_INSTRUMENT=DI-ESI-Orbitrap
FILENAME=Arachidonic_acid_neg2.mzXML
SEQ=*..*
IONMODE=Negative
ORGANISM=GNPS-EMBL-MCF
NAME=Arachidonic acid M-H
PI=Alexandrov Theodore
DATACOLLECTOR=Prasad
SMILES=N/A
INCHI="InChI=1S/C20H32O2/c1-2-3-4-5-6-7-8-9-10-11-12-13-14-15-16-17-18-19-20(21)22/h6-7,9-10,12-13,15-16H,2-5,8,11,14,17-19H2,1H3,(H,21,22)/b7-6-,10-9-,13-12-,16-15-"
INCHIAUX=YZXBAPSDXZZRGB-DOFZRALJSA-N
PUBMED=444899
SUBMITUSER=pphapale
TAGS=
LIBRARYQUALITY=1
SPECTRUMID=CCMSLIB00000479580
SCANS=1
59.012424	23562038.0
65.679092	251464.15625
71.013329	671767.4375
72.420601	863844.9375
83.050598	2070102.75
89.333054	267005.65625
99.288834	284449.71875
163.097504	1835264.625
177.099335	1152345.25
191.118622	589106.125
205.209518	6655762.0
231.225479	2919716.25
259.261658	23238930.0
260.263458	2808957.75
285.242432	3692310.5
301.234131	1066056.0
303.26181	164966880.0
304.26239	17073884.0
END IONS
BEGIN IONS
PEPMASS=175.119
CHARGE=1
MSLEVEL=2
SOURCE_INSTRUMENT=DI-ESI-Orbitrap
FILENAME=Arginine_MS2.mzXML
SEQ=*..*
IONMODE=Positive
ORGANISM=GNPS-EMBL-MCF
NAME=Arginine M+H
PI=Alexandrov Theodore
DATACOLLECTOR=Prasad
SMILES=N/A
INCHI="InChI=1S/C6H14N4O2/c7-4(5(11)12)2-1-3-10-6(8)9/h4H,1-3,7H2,(H,11,12)(H4,8,9,10)/t4-/m0/s1"
INCHIAUX=ODKSFYDXXFIFQN-BYPYZUCNSA-N
PUBMED=28782
SUBMITUSER=pphapale
TAGS=
LIBRARYQUALITY=1
SPECTRUMID=CCMSLIB00000479581
SCANS=1
60.056824	20566794.0
70.066811	17220388.0
71.062859	129677.507812
72.082695	1394306.0
72.967789	64787.1875
81.936661	32840.96875
88.078316	63569.90625
97.078789	185473.484375
98.062721	152986.984375
110.461555	33604.675781
112.090759	1915127.0
113.074547	223662.546875
114.106842	717526.9375
115.090767	592988.875
116.075928	21967044.0
117.077805	164672.046875
130.103699	7933185.5
133.165359	201222.609375
140.08812	185517.296875
141.071899	154714.6875
157.116974	1577862.125
158.100647	8488992.0
159.102417	53228.253906
175.131241	46103468.0
176.131012	249996.796875
END IONS
BEGIN IONS
PEPMASS=175.024
CHARGE=1
MSLEVEL=2
SOURCE_INSTRUMENT=DI-ESI-Orbitrap
FILENAME=Ascorbic_acid_neg2.mzXML
SEQ=*..*
IONMODE=Negative
ORGANISM=GNPS-EMBL-MCF
NAME=Ascorbic acid M-H
PI=Alexandrov Theodore
DATACOLLECTOR=Prasad
SMILES=N/A
INCHI="InChI=1S/C6H8O6/c7-1-2(8)5-3(9)4(10)6(11)12-5/h2,5,7-10H,1H2/t2-,5+/m0/s1"
INCHIAUX=CIWBSHSKHKDKBQ-JLAZNSOCSA-N
PUBMED=54690394
SUBMITUSER=pphapale
TAGS=
LIBRARYQUALITY=1
SPECTRUMID=CCMSLIB00000479607
SCANS=1
53.001652	4819.629395
55.017174	97560.703125
57.014565	567121.875
58.004681	238461.4375
59.012596	26324304.0
60.014759	288406.53125
60.992226	10762.765625
67.018181	261879.03125
69.015503	128148.054688
71.013306	24254448.0
72.016899	369049.28125
73.004959	3914393.25
74.019714	34280.472656
75.008507	293282.625
83.014206	924209.125
84.017136	18528.539062
85.028069	2249360.75
86.020142	75019.328125
87.009476	54513956.0
88.012764	732946.6875
95.014046	95593.734375
96.994072	53625.683594
99.010262	908034.1875
100.012817	9818.677734
101.02639	385683.625
103.005859	221342.984375
105.021652	38340.539062
111.011009	169007.546875
113.011147	1950227.75
114.030151	19225.458984
115.007126	23456662.0
116.009918	457756.375
117.021637	9479.566406
127.007904	280419.625
129.022736	154423.65625
131.039505	28395.685547
139.007797	79431.828125
147.036224	16254.768555
157.021301	51913.722656
161.031235	139088.75
175.032471	27175972.0
176.037323	808394.6875
END IONS
BEGIN IONS
PEPMASS=134.045
CHARGE=1
MSLEVEL=2
SOURCE_INSTRUMENT=DI-ESI-Orbitrap
FILENAME=Aspartic_acid2.mzXML
SEQ=*..*
IONMODE=Positive
ORGANISM=GNPS-EMBL-MCF
NAME=Aspartic acid M+H
PI=Alexandrov Theodore
DATACOLLECTOR=Prasad
SMILES=N/A
INCHI="InChI=1S/C4H7NO4/c5-2(4(8)9)1-3(6)7/h2H,1,5H2,(H,6,7)(H,8,9)/t2-/m0/s1"
INCHIAUX=CKLJMWTZIZZHCS-REOHCLBHSA-N
PUBMED=44367445
SUBMITUSER=pphapale
TAGS=
LIBRARYQUALITY=1
SPECTRUMID=CCMSLIB00000479608
SCANS=1
56.367771	52688.234375
61.029579	54141.765625
70.030296	561100.75
73.229965	41380.050781
74.025749	32275294.0
75.028831	249212.140625
79.023346	46146.296875
88.042374	24659428.0
89.045036	273908.6875
109.839478	25265.826172
116.039391	3457162.75
134.05101	2983189.75
135.053543	41962.378906
149.681931	27315.875
END IONS
BEGIN IONS
PEPMASS=245.098
CHARGE=1
MSLEVEL=2
SOURCE_INSTRUMENT=DI-ESI-Orbitrap
FILENAME=Biotin2.mzXML
SEQ=*..*
IONMODE=Positive
ORGANISM=GNPS-EMBL-MCF
NAME=Biotin M+H
PI=Alexandrov Theodore
DATACOLLECTOR=Prasad
SMILES=N/A
INCHI="InChI=1S/C10H16N2O3S/c13-8(14)4-2-1-3-7-9-6(5-16-7)11-10(15)12-9/h6-7,9H,1-5H2,(H,13,14)(H2,11,12,15)/t6-,7-,9-/m0/s1"
INCHIAUX=YBJHBAHKTGYVGT-ZKWXMUAHSA-N
PUBMED=171548
SUBMITUSER=pphapale
TAGS=
LIBRARYQUALITY=1
SPECTRUMID=CCMSLIB00000479609
SCANS=1
51.276215	201696.0625
53.037777	225606.234375
55.054779	646806.875
61.041203	1477762.0
64.204727	184112.484375
67.056	241819.09375
72.211189	417286.28125
73.012924	262306.34375
76.024055	815235.5
81.072227	272668.0
82.031563	301566.71875
85.013573	354831.40625
97.039581	10153285.0
100.024445	240158.125
105.073616	288796.375
107.089188	260646.625
108.057144	593619.375
109.067917	204804.546875
111.030624	428553.9375
113.045746	1001457.375
115.061554	372717.125
121.068718	857933.8125
123.031425	3773334.5
125.046349	967188.0
133.068878	270554.4375
139.06427	2022508.625
142.960922	1089258.25
145.175888	213863.984375
149.048813	1487220.625
150.097397	1467432.5
151.088577	729665.0625
156.092545	499511.8125
166.078796	7334065.5
167.062485	9927721.0
181.10733	243857.3125
182.072678	969712.5625
184.091156	8018583.0
185.076874	700747.0
192.059509	1678574.125
193.108917	1650377.5
199.10405	8294302.0
209.086716	15202032.0
210.071671	569506.3125
227.101807	926290944.0
228.103989	2256213.0
245.115768	179656880.0
END IONS
BEGIN IONS
PEPMASS=191.035
CHARGE=1
MSLEVEL=2
SOURCE_INSTRUMENT=DI-ESI-Orbitrap
FILENAME=Citric_acid_neg2.mzXML
SEQ=*..*
IONMODE=Negative
ORGANISM=GNPS-EMBL-MCF
NAME=Citric acid M-H
PI=Alexandrov Theodore
DATACOLLECTOR=Prasad
SMILES=N/A
INCHI="InChI=1S/C6H8O7/c7-3(8)1-6(13,5(11)12)2-4(9)10/h13H,1-2H2,(H,7,8)(H,9,10)(H,11,12)"
INCHIAUX=KRKNYBCHXYNGOX-UHFFFAOYSA-N
PUBMED=19782904
SUBMITUSER=pphapale
TAGS=
LIBRARYQUALITY=1
SPECTRUMID=CCMSLIB00000479610
SCANS=1
55.309017	26988.396484
57.033176	1072515.625
57.775112	24416.537109
59.013027	23209.166016
67.018593	84438.867188
72.744606	45378.042969
75.912361	29132.867188
85.030861	7550744.5
86.033173	159962.09375
87.009438	11575775.0
88.012619	185860.828125
101.025459	131822.875
103.041756	115444.835938
111.011368	32460302.0
112.014816	912500.875
116.05545	26533.630859
129.024292	2809614.5
130.027008	49458.449219
131.003357	280171.03125
147.034683	268974.84375
155.004623	187163.109375
173.018311	693458.125
191.03299	5119567.5
192.03421	185818.765625
END IONS
BEGIN IONS
PEPMASS=122.03
CHARGE=1
MSLEVEL=2
SOURCE_INSTRUMENT=DI-ESI-Orbitrap
FILENAME=Cysteine_MS2.mzXML
SEQ=*..*
IONMODE=Positive
ORGANISM=GNPS-EMBL-MCF
NAME=Cysteine M+H
PI=Alexandrov Theodore
DATACOLLECTOR=Prasad
SMILES=N/A
INCHI="InChI=1S/C3H7NO2S/c4-2(1-7)3(5)6/h2,7H,1,4H2,(H,5,6)/t2-/m0/s1"
INCHIAUX=XUJNEKJLAYXESH-REOHCLBHSA-N
PUBMED=5862
SUBMITUSER=pphapale
TAGS=
LIBRARYQUALITY=1
SPECTRUMID=CCMSLIB00000479611
SCANS=1
56.050392	42345.585938
57.034729	8275.46875
58.996159	386116.8125
73.221016	8805.25
74.007462	7222.203613
76.022491	1004393.6875
80.0513	3623.723633
86.992828	243361.84375
88.042358	5243.276367
93.066216	11583.741211
94.0681	10610.408203
104.074631	64400.964844
105.004654	289717.34375
107.076355	18734.919922
107.622299	4155.836914
122.079407	520521.84375
123.059181	17090.435547
127.828667	4254.670898
END IONS
BEGIN IONS
PEPMASS=483.16
CHARGE=1
MSLEVEL=2
SOURCE_INSTRUMENT=DI-ESI-Q-Exactive Plus
FILENAME=Cytidine_triphosphate2.mzXML
SEQ=*..*
IONMODE=Positive
ORGANISM=GNPS-EMBL-MCF
NAME=Cytidine 5_-triphosphate M+H
PI=Alexandrov Theodore
DATACOLLECTOR=Prasad
SMILES=N/A
INCHI="InChI=1S/C9H16N3O14P3.2Na/c10-5-1-2-12(9(15)11-5)8-7(14)6(13)4(24-8)3-23-28(19,20)26-29(21,22)25-27(16,17)18;;/h1-2,4,6-8,13-14H,3H2,(H,19,20)(H,21,22)(H2,10,11,15)(H2,16,17,18);;/q;2*+1/p-2/t4-,6-,7-,8-;;/m1../s1"
INCHIAUX=NFQMDTRPCFJJND-WFIJOQBCSA-L
PUBMED=6176
SUBMITUSER=pphapale
TAGS=
LIBRARYQUALITY=1
SPECTRUMID=CCMSLIB00000479612
SCANS=1
53.56868	1986.039062
69.04248	16601.279297
95.026825	27994.484375
97.031891	618501.3125
98.987991	5388.470703
104.417656	2298.899658
109.779282	2292.095459
112.055038	7334189.5
113.05764	3632.199219
115.042686	6668.391602
152.374496	2181.114258
187.843979	2087.490723
190.069534	2319.678223
192.028702	12218.072266
199.129211	2743.249023
205.943848	2411.615234
208.086121	203061.671875
217.851196	2062.929688
226.097397	11621.907227
252.936005	2862.479492
258.937836	17388.818359
272.002777	2880.776123
288.062836	18733.226562
306.073273	18825.599609
324.09137	59793.070312
327.968628	3044.641357
328.968597	2270.577393
331.194214	2142.332031
369.927277	9569.357422
386.051056	9121.21875
484.043457	56006.492188
END IONS
BEGIN IONS
PEPMASS=404.02
CHARGE=1
MSLEVEL=2
SOURCE_INSTRUMENT=DI-ESI-Orbitrap
FILENAME=Cytidine_diphosphate2.mzXML
SEQ=*..*
IONMODE=Positive
ORGANISM=GNPS-EMBL-MCF
NAME=Cytidine 5_-diphosphate M+H
PI=Alexandrov Theodore
DATACOLLECTOR=Prasad
SMILES=N/A
INCHI="InChI=1S/C9H15N3O11P2/c10-5-1-2-12(9(15)11-5)8-7(14)6(13)4(22-8)3-21-25(19,20)23-24(16,17)18/h1-2,4,6-8,13-14H,3H2,(H,19,20)(H2,10,11,15)(H2,16,17,18)/t4-,6-,7-,8-/m1/s1"
INCHIAUX=ZWIADYZPOWUWEW-XVFCMESISA-N
PUBMED=6132
SUBMITUSER=pphapale
TAGS=
LIBRARYQUALITY=1
SPECTRUMID=CCMSLIB00000479613
SCANS=1
60.055748	7449.517578
69.042969	41024.453125
75.107704	7897.96875
83.050262	8260.068359
95.027405	102957.789062
97.031845	1933484.625
112.054977	36699864.0
113.056587	178665.34375
192.026703	51846.46875
208.085556	386645.4375
214.521286	8433.279297
226.098831	42665.246094
288.063721	69798.84375
306.075653	68617.414062
404.07074	212609.28125
END IONS
BEGIN IONS
PEPMASS=244.09
CHARGE=1
MSLEVEL=2
SOURCE_INSTRUMENT=DI-ESI-Orbitrap
FILENAME=Cytidine2.mzXML
SEQ=*..*
IONMODE=Positive
ORGANISM=GNPS-EMBL-MCF
NAME=Cytidine M+H
PI=Alexandrov Theodore
DATACOLLECTOR=Prasad
SMILES=N/A
INCHI="InChI=1S/C9H13N3O5/c10-5-1-2-12(9(16)11-5)8-7(15)6(14)4(3-13)17-8/h1-2,4,6-8,13-15H,3H2,(H2,10,11,16)/t4-,6-,7-,8-/m1/s1"
INCHIAUX=UHDGCWIWMRVCDJ-XVFCMESISA-N
PUBMED=6175
SUBMITUSER=pphapale
TAGS=
LIBRARYQUALITY=1
SPECTRUMID=CCMSLIB00000479614
SCANS=1
52.019474	122090.726562
53.027031	12754.80957
55.018566	59303.785156
57.034271	164545.375
67.030914	39722.273438
68.038086	45352.679688
69.043175	287177.0625
73.029907	120080.898438
85.030792	129825.390625
87.046883	33839.511719
94.04261	78339.539062
95.027168	530138.375
97.031456	56686.054688
103.041801	30518.804688
112.05471	257622784.0
113.057205	1043890.75
115.041733	211091.6875
133.055267	303797.71875
157.117874	26490.792969
244.115021	820996.125
END IONS
BEGIN IONS
PEPMASS=385.439
CHARGE=1
MSLEVEL=2
SOURCE_INSTRUMENT=DI-ESI-Orbitrap
FILENAME=Desmosterol2.mzXML
SEQ=*..*
IONMODE=Positive
ORGANISM=GNPS-EMBL-MCF
NAME=Desmosterol M+H
PI=Alexandrov Theodore
DATACOLLECTOR=Prasad
SMILES=N/A
INCHI="InChI=1S/C27H44O/c1-18(2)7-6-8-19(3)23-11-12-24-22-10-9-20-17-21(28)13-15-26(20,4)25(22)14-16-27(23,24)5/h7,9,19,21-25,28H,6,8,10-17H2,1-5H3/t19-,21+,22+,23-,24+,25+,26+,27-/m1/s1"
INCHIAUX=AVSXSVCZWQODGV-DPAQBDIFSA-N
PUBMED=439577
SUBMITUSER=pphapale
TAGS=
LIBRARYQUALITY=1
SPECTRUMID=CCMSLIB00000479615
SCANS=1
53.312294	1074957.375
55.055489	1856051.375
57.070545	11004014.0
67.055931	4443358.0
69.071159	10135773.0
71.086914	12771678.0
79.056686	2648466.5
81.072067	29456328.0
83.062744	59386244.0
85.102898	4612928.5
91.056709	1158146.625
93.073021	5465900.5
95.088928	39435492.0
97.069519	496477664.0
102.696892	1172330.0
105.073349	5105083.0
107.042076	13328427.0
109.0709	510063360.0
111.120369	14257538.0
119.090279	7493996.0
121.09819	14445735.0
123.094826	68101408.0
125.136765	7219818.5
131.089859	4534353.5
133.106857	11233749.0
135.121628	10042070.0
137.125427	15306982.0
145.107224	9567521.0
147.12352	11445974.0
149.138779	18910480.0
151.142899	8332197.5
156.932724	3634862.25
159.124283	13272444.0
161.139755	12480081.0
163.137482	25533666.0
165.171844	5071313.0
170.979553	2664890.0
173.141571	10521535.0
175.15683	7246767.0
177.141968	18020994.0
179.188797	9010143.0
185.141342	5516387.5
187.159119	8660372.0
189.172379	5419574.0
191.159576	11738866.0
193.205811	8352818.0
199.160629	8585796.0
201.176117	11776112.0
203.166351	10283285.0
205.194641	9683710.0
207.222992	3222491.0
210.990967	1188695.25
213.177536	11170467.0
215.193619	8547426.0
217.17717	9122228.0
219.202393	8671463.0
227.19455	10896007.0
229.209732	2164313.5
231.196533	9950591.0
233.242981	2961275.0
235.257553	1193484.75
241.212875	16124764.0
243.227402	1334230.75
245.208069	2152686.25
255.233688	24344224.0
259.237762	6493542.0
261.27887	2867206.0
269.243347	1406392.625
271.262421	2542506.75
273.251007	6973478.0
275.296112	2607365.0
283.26236	2376141.5
285.281586	2898215.75
289.310699	3151045.25
297.283813	2877718.25
299.298035	1605709.5
301.312775	1860541.375
303.328064	1848612.125
311.296814	1792056.875
315.327484	4647080.0
327.33371	3916008.0
367.370056	81755248.0
385.387756	255675520.0
END IONS
BEGIN IONS
PEPMASS=302.31
CHARGE=1
MSLEVEL=2
SOURCE_INSTRUMENT=DI-ESI-Orbitrap
FILENAME=Dihydrosphingosine2.mzXML
SEQ=*..*
IONMODE=Positive
ORGANISM=GNPS-EMBL-MCF
NAME=Dihydrosphingosine  M+H
PI=Alexandrov Theodore
DATACOLLECTOR=Prasad
SMILES=N/A
INCHI="InChI=1S/C18H39NO2/c1-2-3-4-5-6-7-8-9-10-11-12-13-14-15-18(21)17(19)16-20/h17-18,20-21H,2-16,19H2,1H3/t17-,18+/m0/s1"
INCHIAUX=OTKJDMGTUTTYMP-ZWKOTPCHSA-N
PUBMED=91486
SUBMITUSER=pphapale
TAGS=
LIBRARYQUALITY=1
SPECTRUMID=CCMSLIB00000479616
SCANS=1
55.054996	943072.1875
57.070847	1335143.0
60.045559	55192548.0
61.037689	226691.4375
67.053925	3798174.0
69.07164	2830709.25
70.066589	592200.875
71.050674	577995.875
71.785172	381769.3125
74.062134	260135.484375
79.055984	176402.234375
81.072159	6944893.5
83.087936	4423350.5
85.099113	1005971.25
95.088875	10111571.0
97.104568	4426984.0
99.98259	93259.867188
109.105804	5433791.5
111.121216	1911117.25
123.122093	2206172.5
125.136955	273595.8125
137.138062	654352.875
151.154663	119006.148438
205.604324	321319.4375
240.290863	3070377.0
249.2733	118263.648438
254.306625	10303927.0
255.304108	176650.625
266.308258	9577478.0
267.28775	182076.015625
284.322296	60919528.0
285.322632	2085753.5
302.336945	4255582.5
END IONS
BEGIN IONS
PEPMASS=281.28
CHARGE=1
MSLEVEL=2
SOURCE_INSTRUMENT=DI-ESI-Orbitrap
FILENAME=Elaidic_acid _neg2.mzXML
SEQ=*..*
IONMODE=Negative
ORGANISM=GNPS-EMBL-MCF
NAME=Elaidic acid M-H
PI=Alexandrov Theodore
DATACOLLECTOR=Prasad
SMILES=N/A
INCHI="InChI=1S/C18H34O2/c1-2-3-4-5-6-7-8-9-10-11-12-13-14-15-16-17-18(19)20/h9-10H,2-8,11-17H2,1H3,(H,19,20)/b10-9+"
INCHIAUX=ZQPPMHVWECSIRJ-MDZDMXLPSA-N
PUBMED=445639
SUBMITUSER=pphapale
TAGS=
LIBRARYQUALITY=1
SPECTRUMID=CCMSLIB00000479617
SCANS=1
66.540428	14092.856445
71.039917	158053.390625
74.134857	14685.456055
74.706421	14086.728516
96.398811	14699.806641
210.813889	12922.707031
217.960938	15444.878906
262.298859	18232.212891
281.269531	26642488.0
282.274506	2537840.75
END IONS
BEGIN IONS
PEPMASS=442.16
CHARGE=1
MSLEVEL=2
SOURCE_INSTRUMENT=DI-ESI-Orbitrap
FILENAME=Folic_acid2.mzXML
SEQ=*..*
IONMODE=Positive
ORGANISM=GNPS-EMBL-MCF
NAME=Folic acid M+H
PI=Alexandrov Theodore
DATACOLLECTOR=Prasad
SMILES=N/A
INCHI="InChI=1S/C19H19N7O6/c20-19-25-15-14(17(30)26-19)23-11(8-22-15)7-21-10-3-1-9(2-4-10)16(29)24-12(18(31)32)5-6-13(27)28/h1-4,8,12,21H,5-7H2,(H,24,29)(H,27,28)(H,31,32)(H3,20,22,25,26,30)/t12-/m0/s1"
INCHIAUX=OVBPIULPVIDEAO-LBPRGKRZSA-N
PUBMED=6037
SUBMITUSER=pphapale
TAGS=
LIBRARYQUALITY=1
SPECTRUMID=CCMSLIB00000479618
SCANS=1
58.880062	48356.238281
71.700081	295197.40625
81.046005	123308.601562
82.769615	41704.882812
106.044563	874843.75
108.060692	300754.59375
120.049431	20700240.0
121.051521	67938.40625
134.038895	279719.84375
148.068359	53475.984375
149.05098	50057.117188
176.067825	16705402.0
177.070648	215187.171875
182.094254	48479.125
194.077957	61921.226562
250.090591	74274.101562
267.120911	484785.71875
269.137848	945684.125
295.124634	306769024.0
296.127686	3412429.25
305.124786	386006.0625
313.137024	33077454.0
314.134674	374116.0
327.149841	67593.265625
442.19516	462587.34375
END IONS
